20200131 385400.00 347200.00
20191231 347202.73 346897.32
20171231 343700.00 343400.00
20170630 419267.18 343234.84
20160714 415426.24 339151.54
20151231 415387.68 339112.98
20150717 415347.12 339072.42
